148
70
88
94
104
102
111
113
131
27
120
115
128
145
61
125
51
116
50
108
8
75
19
106
66
65
4
80
122
42
89
133
92
6
49
10
63
142
105
9
117
83
149
34
48
5
103
146
126
44
31
119
118
124
26
97
56
139
47
150
86
12
57
55
123
136
41
100
14
132
77
110
109
32
11
17
15
141
59
127
74
21
24
79
16
22
129
143
76
33
13
2
67
130
93
28
69
64
40
114
73
68
82
95
96
78
30
121
101
39
81
25
87
140
135
7
20
35
62
60
91
84
134
53
98
23
45
72
36
99
38
18
137
90
1
58
85
147
37
52
71
43
3
46
29
112
107
144
54
138
148
